(set-info :source  loris-7.ddns.comp.nus.edu.sg/~project/hip/) 
;Variables declarations
(declare-fun nc_10928 () Int)
(declare-fun nd () Int)
(declare-fun a () Int)
(declare-fun b () Int)
(declare-fun c_primed () Int)
(declare-fun d_primed () Int)
(declare-fun d () Int)
(declare-fun color_primed () Int)
(declare-fun flted_168_10985 () Int)
(declare-fun flted_168_10984 () Int)
(declare-fun flted_168_10982 () Int)
(declare-fun color () Int)
(declare-fun v_int_175_10987 () Int)
(declare-fun v_11101 () Int)
(declare-fun v_int_175_10986 () Int)
(declare-fun l_11102 () Int)
(declare-fun a_primed () Int)
(declare-fun r_11105 () Int)
(declare-fun b_primed () Int)
(declare-fun na () Int)
(declare-fun nb () Int)
(declare-fun bhr_11107 () Int)
(declare-fun bhl_11104 () Int)
(declare-fun ha () Int)
(declare-fun na_10926 () Int)
(declare-fun nr_11106 () Int)
(declare-fun nl_11103 () Int)
(declare-fun flted_168_10983 () Int)
(declare-fun h () Int)
(declare-fun nc () Int)
(declare-fun c () Int)
;Relations declarations
;Axioms assertions
;Antecedent
(assert (= nc_10928 nd))
(assert (= a_primed a))
(assert (= b_primed b))
(assert (= c_primed c))
(assert (= d_primed d))
(assert (= color_primed color))
(assert (= flted_168_10985 0))
(assert (= flted_168_10984 0))
(assert (= flted_168_10983 0))
(assert (= flted_168_10982 0))
(assert (= color 0))
(assert (= v_int_175_10986 0))
(assert (= v_int_175_10987 1))
(assert (= v_11101 v_int_175_10986))
(assert (= l_11102 a_primed))
(assert (= r_11105 b_primed))
(assert (= nl_11103 na))
(assert (= bhl_11104 h))
(assert (= nr_11106 nb))
(assert (= bhr_11107 h))
(assert (= bhr_11107 bhl_11104))
(assert (= bhr_11107 ha))
(assert (= bhl_11104 ha))
(assert (= na_10926 (+ (+ nr_11106 1) nl_11103)))
(assert (or (and (and (and (= flted_168_10983 0) (<= 2 h)) (<= 1 nc)) (> c 0)) (or (and (and (and (< c 1) (= nc 0)) (= h 1)) (= flted_168_10983 0)) (and (and (and (= flted_168_10983 1) (<= 1 h)) (<= 1 nc)) (> c 0)))))
;Negation of Consequence
(assert (not false))
(check-sat)